
******************************************************************************
This program contains Ipopt, a library for large-scale nonlinear optimization.
 Ipopt is released as open source code under the Eclipse Public License (EPL).
         For more information visit http://projects.coin-or.org/Ipopt

This version of Ipopt was compiled from source code available at
    https://github.com/IDAES/Ipopt as part of the Institute for the Design of
    Advanced Energy Systems Process Systems Engineering Framework (IDAES PSE
    Framework) Copyright (c) 2018-2019. See https://github.com/IDAES/idaes-pse.

This version of Ipopt was compiled using HSL, a collection of Fortran codes
    for large-scale scientific computation.  All technical papers, sales and
    publicity material resulting from use of the HSL codes within IPOPT must
    contain the following acknowledgement:
        HSL, a collection of Fortran codes for large-scale scientific
        computation. See http://www.hsl.rl.ac.uk.
******************************************************************************

This is Ipopt version 3.13.2, running with linear solver ma27.

Number of nonzeros in equality constraint Jacobian...:      914
Number of nonzeros in inequality constraint Jacobian.:        0
Number of nonzeros in Lagrangian Hessian.............:      918

Total number of variables............................:      378
                     variables with only lower bounds:      108
                variables with lower and upper bounds:      216
                     variables with only upper bounds:        0
Total number of equality constraints.................:      376
Total number of inequality constraints...............:        0
        inequality constraints with only lower bounds:        0
   inequality constraints with lower and upper bounds:        0
        inequality constraints with only upper bounds:        0

iter    objective    inf_pr   inf_du lg(mu)  ||d||  lg(rg) alpha_du alpha_pr  ls
   0  0.0000000e+00 8.90e-01 2.84e-14  -1.0 0.00e+00    -  0.00e+00 0.00e+00   0
   1  8.4050588e+00 3.06e+00 2.17e+06  -1.0 7.01e+05    -  2.56e-02 2.47e-01h  3
   2  6.3644028e+01 3.86e+00 6.74e+06  -1.0 6.43e+05    -  5.64e-01 4.95e-01h  2
   3  5.4611914e+01 3.67e-01 1.77e+07  -1.0 3.24e+05    -  8.47e-01 9.90e-01h  1
   4  5.4559571e+01 2.59e-01 4.26e+04  -1.0 1.96e+04  -4.0 9.65e-01 9.90e-01h  1
   5  5.4558630e+01 3.40e-02 2.75e+04  -1.0 3.81e+02  -4.5 8.86e-01 9.90e-01h  1
   6  5.4557915e+01 1.05e-03 2.73e+02  -1.0 4.44e+00  -5.0 9.90e-01 9.90e-01h  1
   7  1.4425088e+01 1.93e-01 1.11e+08  -1.7 4.27e+05    -  7.28e-01 5.17e-01f  1
   8  1.4019453e+01 1.89e-01 9.55e+08  -1.7 2.66e+05    -  7.97e-01 2.01e-02f  1
   9  1.0979274e+01 1.18e-01 9.62e+08  -1.7 2.32e+05    -  9.90e-01 5.29e-01f  1
iter    objective    inf_pr   inf_du lg(mu)  ||d||  lg(rg) alpha_du alpha_pr  ls
  10  1.1641795e+01 8.65e-04 3.32e+07  -1.7 2.69e+04    -  1.00e+00 9.90e-01h  1
  11  1.1672971e+01 1.60e-05 2.36e+09  -1.7 6.59e+02    -  1.00e+00 9.90e-01h  1
  12  1.1674787e+01 3.59e-07 2.36e+11  -1.7 2.14e+02    -  1.00e+00 9.90e-01h  1
In iteration 12, 27 Slacks too small, adjusting variable bounds
  13  1.1674764e+01 2.06e-08 2.36e+13  -1.7 2.65e+00    -  1.00e+00 9.90e-01h  1
  14  1.1674764e+01 2.19e-08 2.46e-01  -1.7 2.80e-02    -  1.00e+00 1.00e+00h  1
  15  1.1619212e+01 3.54e-05 4.98e+12  -9.0 6.47e+02    -  1.00e+00 7.93e-01f  1
  16  1.1616885e+01 3.94e-06 5.56e+11  -9.0 2.14e+02    -  1.00e+00 8.89e-01h  1
  17  1.1616880e+01 5.00e-09 2.91e-05  -9.0 4.75e-02    -  1.00e+00 1.00e+00h  1
  18  1.1616880e+01 1.06e-09 2.33e-10  -9.0 2.07e-07    -  1.00e+00 1.00e+00h  1

Number of Iterations....: 18

                                   (scaled)                 (unscaled)
Objective...............:   1.1616880427325231e+01    1.1616880427325231e+01
Dual infeasibility......:   2.3283064365386963e-10    2.3283064365386963e-10
Constraint violation....:   1.0570750941241158e-09    1.0570750941241158e-09
Complementarity.........:   9.0909109278876779e-10    9.0909109278876779e-10
Overall NLP error.......:   1.0570750941241158e-09    1.0570750941241158e-09


Number of objective function evaluations             = 24
Number of objective gradient evaluations             = 19
Number of equality constraint evaluations            = 24
Number of inequality constraint evaluations          = 0
Number of equality constraint Jacobian evaluations   = 19
Number of inequality constraint Jacobian evaluations = 0
Number of Lagrangian Hessian evaluations             = 18
Total CPU secs in IPOPT (w/o function evaluations)   =      0.041
Total CPU secs in NLP function evaluations           =      0.424

EXIT: Optimal Solution Found.
